1640810
0,53,46,12,64,19,3,47,1,44,26,16,8,57,14,35,7,67,34,50,38,61,36,52,49,27,58,15,62,23,60,2,20,30,43,9,17,56,32,51,13,21,42,45,33,54,25,65,10,6,37,66,63,5,40,29,24,28,59,22,48,18,4,39,55,31,41,11,0